(set-logic QF_LRA)
(declare-fun X0 () Real )
(declare-fun Y0 () Real )
(declare-fun X1 () Real )
(declare-fun Y1 () Real )
(declare-fun X2 () Real )
(declare-fun Y2 () Real )
(declare-fun X3 () Real )
(declare-fun Y3 () Real )
(declare-fun X4 () Real )
(declare-fun Y4 () Real )
(declare-fun X5 () Real )
(declare-fun Y5 () Real )
(declare-fun X6 () Real )
(declare-fun Y6 () Real )
(declare-fun X7 () Real )
(declare-fun Y7 () Real )
(declare-fun X8 () Real )
(declare-fun Y8 () Real )
(declare-fun X9 () Real )
(declare-fun Y9 () Real )
(declare-fun X10 () Real )
(declare-fun Y10 () Real )
(declare-fun X11 () Real )
(declare-fun Y11 () Real )
(declare-fun Z () Real )
(assert ( and  
( or ( <= ( + X0 72 ) X1 )  ( <= ( + X1 73 ) X0 )  ( <= ( + Y0 7 ) Y1 )  ( <= ( + Y1 73 ) Y0 )  )
( or ( <= ( + X0 72 ) X2 )  ( <= ( + X2 85 ) X0 )  ( <= ( + Y0 7 ) Y2 )  ( <= ( + Y2 22 ) Y0 )  )
( or ( <= ( + X0 72 ) X3 )  ( <= ( + X3 90 ) X0 )  ( <= ( + Y0 7 ) Y3 )  ( <= ( + Y3 1 ) Y0 )  )
( or ( <= ( + X0 72 ) X4 )  ( <= ( + X4 26 ) X0 )  ( <= ( + Y0 7 ) Y4 )  ( <= ( + Y4 92 ) Y0 )  )
( or ( <= ( + X0 72 ) X5 )  ( <= ( + X5 3 ) X0 )  ( <= ( + Y0 7 ) Y5 )  ( <= ( + Y5 73 ) Y0 )  )
( or ( <= ( + X0 72 ) X6 )  ( <= ( + X6 46 ) X0 )  ( <= ( + Y0 7 ) Y6 )  ( <= ( + Y6 22 ) Y0 )  )
( or ( <= ( + X0 72 ) X7 )  ( <= ( + X7 22 ) X0 )  ( <= ( + Y0 7 ) Y7 )  ( <= ( + Y7 1 ) Y0 )  )
( or ( <= ( + X0 72 ) X8 )  ( <= ( + X8 59 ) X0 )  ( <= ( + Y0 7 ) Y8 )  ( <= ( + Y8 76 ) Y0 )  )
( or ( <= ( + X0 72 ) X9 )  ( <= ( + X9 33 ) X0 )  ( <= ( + Y0 7 ) Y9 )  ( <= ( + Y9 55 ) Y0 )  )
( or ( <= ( + X0 72 ) X10 )  ( <= ( + X10 77 ) X0 )  ( <= ( + Y0 7 ) Y10 )  ( <= ( + Y10 43 ) Y0 )  )
( or ( <= ( + X0 72 ) X11 )  ( <= ( + X11 38 ) X0 )  ( <= ( + Y0 7 ) Y11 )  ( <= ( + Y11 5 ) Y0 )  )
( or ( <= ( + X1 73 ) X2 )  ( <= ( + X2 85 ) X1 )  ( <= ( + Y1 73 ) Y2 )  ( <= ( + Y2 22 ) Y1 )  )
( or ( <= ( + X1 73 ) X3 )  ( <= ( + X3 90 ) X1 )  ( <= ( + Y1 73 ) Y3 )  ( <= ( + Y3 1 ) Y1 )  )
( or ( <= ( + X1 73 ) X4 )  ( <= ( + X4 26 ) X1 )  ( <= ( + Y1 73 ) Y4 )  ( <= ( + Y4 92 ) Y1 )  )
( or ( <= ( + X1 73 ) X5 )  ( <= ( + X5 3 ) X1 )  ( <= ( + Y1 73 ) Y5 )  ( <= ( + Y5 73 ) Y1 )  )
( or ( <= ( + X1 73 ) X6 )  ( <= ( + X6 46 ) X1 )  ( <= ( + Y1 73 ) Y6 )  ( <= ( + Y6 22 ) Y1 )  )
( or ( <= ( + X1 73 ) X7 )  ( <= ( + X7 22 ) X1 )  ( <= ( + Y1 73 ) Y7 )  ( <= ( + Y7 1 ) Y1 )  )
( or ( <= ( + X1 73 ) X8 )  ( <= ( + X8 59 ) X1 )  ( <= ( + Y1 73 ) Y8 )  ( <= ( + Y8 76 ) Y1 )  )
( or ( <= ( + X1 73 ) X9 )  ( <= ( + X9 33 ) X1 )  ( <= ( + Y1 73 ) Y9 )  ( <= ( + Y9 55 ) Y1 )  )
( or ( <= ( + X1 73 ) X10 )  ( <= ( + X10 77 ) X1 )  ( <= ( + Y1 73 ) Y10 )  ( <= ( + Y10 43 ) Y1 )  )
( or ( <= ( + X1 73 ) X11 )  ( <= ( + X11 38 ) X1 )  ( <= ( + Y1 73 ) Y11 )  ( <= ( + Y11 5 ) Y1 )  )
( or ( <= ( + X2 85 ) X3 )  ( <= ( + X3 90 ) X2 )  ( <= ( + Y2 22 ) Y3 )  ( <= ( + Y3 1 ) Y2 )  )
( or ( <= ( + X2 85 ) X4 )  ( <= ( + X4 26 ) X2 )  ( <= ( + Y2 22 ) Y4 )  ( <= ( + Y4 92 ) Y2 )  )
( or ( <= ( + X2 85 ) X5 )  ( <= ( + X5 3 ) X2 )  ( <= ( + Y2 22 ) Y5 )  ( <= ( + Y5 73 ) Y2 )  )
( or ( <= ( + X2 85 ) X6 )  ( <= ( + X6 46 ) X2 )  ( <= ( + Y2 22 ) Y6 )  ( <= ( + Y6 22 ) Y2 )  )
( or ( <= ( + X2 85 ) X7 )  ( <= ( + X7 22 ) X2 )  ( <= ( + Y2 22 ) Y7 )  ( <= ( + Y7 1 ) Y2 )  )
( or ( <= ( + X2 85 ) X8 )  ( <= ( + X8 59 ) X2 )  ( <= ( + Y2 22 ) Y8 )  ( <= ( + Y8 76 ) Y2 )  )
( or ( <= ( + X2 85 ) X9 )  ( <= ( + X9 33 ) X2 )  ( <= ( + Y2 22 ) Y9 )  ( <= ( + Y9 55 ) Y2 )  )
( or ( <= ( + X2 85 ) X10 )  ( <= ( + X10 77 ) X2 )  ( <= ( + Y2 22 ) Y10 )  ( <= ( + Y10 43 ) Y2 )  )
( or ( <= ( + X2 85 ) X11 )  ( <= ( + X11 38 ) X2 )  ( <= ( + Y2 22 ) Y11 )  ( <= ( + Y11 5 ) Y2 )  )
( or ( <= ( + X3 90 ) X4 )  ( <= ( + X4 26 ) X3 )  ( <= ( + Y3 1 ) Y4 )  ( <= ( + Y4 92 ) Y3 )  )
( or ( <= ( + X3 90 ) X5 )  ( <= ( + X5 3 ) X3 )  ( <= ( + Y3 1 ) Y5 )  ( <= ( + Y5 73 ) Y3 )  )
( or ( <= ( + X3 90 ) X6 )  ( <= ( + X6 46 ) X3 )  ( <= ( + Y3 1 ) Y6 )  ( <= ( + Y6 22 ) Y3 )  )
( or ( <= ( + X3 90 ) X7 )  ( <= ( + X7 22 ) X3 )  ( <= ( + Y3 1 ) Y7 )  ( <= ( + Y7 1 ) Y3 )  )
( or ( <= ( + X3 90 ) X8 )  ( <= ( + X8 59 ) X3 )  ( <= ( + Y3 1 ) Y8 )  ( <= ( + Y8 76 ) Y3 )  )
( or ( <= ( + X3 90 ) X9 )  ( <= ( + X9 33 ) X3 )  ( <= ( + Y3 1 ) Y9 )  ( <= ( + Y9 55 ) Y3 )  )
( or ( <= ( + X3 90 ) X10 )  ( <= ( + X10 77 ) X3 )  ( <= ( + Y3 1 ) Y10 )  ( <= ( + Y10 43 ) Y3 )  )
( or ( <= ( + X3 90 ) X11 )  ( <= ( + X11 38 ) X3 )  ( <= ( + Y3 1 ) Y11 )  ( <= ( + Y11 5 ) Y3 )  )
( or ( <= ( + X4 26 ) X5 )  ( <= ( + X5 3 ) X4 )  ( <= ( + Y4 92 ) Y5 )  ( <= ( + Y5 73 ) Y4 )  )
( or ( <= ( + X4 26 ) X6 )  ( <= ( + X6 46 ) X4 )  ( <= ( + Y4 92 ) Y6 )  ( <= ( + Y6 22 ) Y4 )  )
( or ( <= ( + X4 26 ) X7 )  ( <= ( + X7 22 ) X4 )  ( <= ( + Y4 92 ) Y7 )  ( <= ( + Y7 1 ) Y4 )  )
( or ( <= ( + X4 26 ) X8 )  ( <= ( + X8 59 ) X4 )  ( <= ( + Y4 92 ) Y8 )  ( <= ( + Y8 76 ) Y4 )  )
( or ( <= ( + X4 26 ) X9 )  ( <= ( + X9 33 ) X4 )  ( <= ( + Y4 92 ) Y9 )  ( <= ( + Y9 55 ) Y4 )  )
( or ( <= ( + X4 26 ) X10 )  ( <= ( + X10 77 ) X4 )  ( <= ( + Y4 92 ) Y10 )  ( <= ( + Y10 43 ) Y4 )  )
( or ( <= ( + X4 26 ) X11 )  ( <= ( + X11 38 ) X4 )  ( <= ( + Y4 92 ) Y11 )  ( <= ( + Y11 5 ) Y4 )  )
( or ( <= ( + X5 3 ) X6 )  ( <= ( + X6 46 ) X5 )  ( <= ( + Y5 73 ) Y6 )  ( <= ( + Y6 22 ) Y5 )  )
( or ( <= ( + X5 3 ) X7 )  ( <= ( + X7 22 ) X5 )  ( <= ( + Y5 73 ) Y7 )  ( <= ( + Y7 1 ) Y5 )  )
( or ( <= ( + X5 3 ) X8 )  ( <= ( + X8 59 ) X5 )  ( <= ( + Y5 73 ) Y8 )  ( <= ( + Y8 76 ) Y5 )  )
( or ( <= ( + X5 3 ) X9 )  ( <= ( + X9 33 ) X5 )  ( <= ( + Y5 73 ) Y9 )  ( <= ( + Y9 55 ) Y5 )  )
( or ( <= ( + X5 3 ) X10 )  ( <= ( + X10 77 ) X5 )  ( <= ( + Y5 73 ) Y10 )  ( <= ( + Y10 43 ) Y5 )  )
( or ( <= ( + X5 3 ) X11 )  ( <= ( + X11 38 ) X5 )  ( <= ( + Y5 73 ) Y11 )  ( <= ( + Y11 5 ) Y5 )  )
( or ( <= ( + X6 46 ) X7 )  ( <= ( + X7 22 ) X6 )  ( <= ( + Y6 22 ) Y7 )  ( <= ( + Y7 1 ) Y6 )  )
( or ( <= ( + X6 46 ) X8 )  ( <= ( + X8 59 ) X6 )  ( <= ( + Y6 22 ) Y8 )  ( <= ( + Y8 76 ) Y6 )  )
( or ( <= ( + X6 46 ) X9 )  ( <= ( + X9 33 ) X6 )  ( <= ( + Y6 22 ) Y9 )  ( <= ( + Y9 55 ) Y6 )  )
( or ( <= ( + X6 46 ) X10 )  ( <= ( + X10 77 ) X6 )  ( <= ( + Y6 22 ) Y10 )  ( <= ( + Y10 43 ) Y6 )  )
( or ( <= ( + X6 46 ) X11 )  ( <= ( + X11 38 ) X6 )  ( <= ( + Y6 22 ) Y11 )  ( <= ( + Y11 5 ) Y6 )  )
( or ( <= ( + X7 22 ) X8 )  ( <= ( + X8 59 ) X7 )  ( <= ( + Y7 1 ) Y8 )  ( <= ( + Y8 76 ) Y7 )  )
( or ( <= ( + X7 22 ) X9 )  ( <= ( + X9 33 ) X7 )  ( <= ( + Y7 1 ) Y9 )  ( <= ( + Y9 55 ) Y7 )  )
( or ( <= ( + X7 22 ) X10 )  ( <= ( + X10 77 ) X7 )  ( <= ( + Y7 1 ) Y10 )  ( <= ( + Y10 43 ) Y7 )  )
( or ( <= ( + X7 22 ) X11 )  ( <= ( + X11 38 ) X7 )  ( <= ( + Y7 1 ) Y11 )  ( <= ( + Y11 5 ) Y7 )  )
( or ( <= ( + X8 59 ) X9 )  ( <= ( + X9 33 ) X8 )  ( <= ( + Y8 76 ) Y9 )  ( <= ( + Y9 55 ) Y8 )  )
( or ( <= ( + X8 59 ) X10 )  ( <= ( + X10 77 ) X8 )  ( <= ( + Y8 76 ) Y10 )  ( <= ( + Y10 43 ) Y8 )  )
( or ( <= ( + X8 59 ) X11 )  ( <= ( + X11 38 ) X8 )  ( <= ( + Y8 76 ) Y11 )  ( <= ( + Y11 5 ) Y8 )  )
( or ( <= ( + X9 33 ) X10 )  ( <= ( + X10 77 ) X9 )  ( <= ( + Y9 55 ) Y10 )  ( <= ( + Y10 43 ) Y9 )  )
( or ( <= ( + X9 33 ) X11 )  ( <= ( + X11 38 ) X9 )  ( <= ( + Y9 55 ) Y11 )  ( <= ( + Y11 5 ) Y9 )  )
( or ( <= ( + X10 77 ) X11 )  ( <= ( + X11 38 ) X10 )  ( <= ( + Y10 43 ) Y11 )  ( <= ( + Y11 5 ) Y10 )  )
( >= X0 0)
( <= ( + X0 72) Z)
( >= Y0 0)
( <= ( + Y0 7 ) 173)
( >= X1 0)
( <= ( + X1 73) Z)
( >= Y1 0)
( <= ( + Y1 73 ) 173)
( >= X2 0)
( <= ( + X2 85) Z)
( >= Y2 0)
( <= ( + Y2 22 ) 173)
( >= X3 0)
( <= ( + X3 90) Z)
( >= Y3 0)
( <= ( + Y3 1 ) 173)
( >= X4 0)
( <= ( + X4 26) Z)
( >= Y4 0)
( <= ( + Y4 92 ) 173)
( >= X5 0)
( <= ( + X5 3) Z)
( >= Y5 0)
( <= ( + Y5 73 ) 173)
( >= X6 0)
( <= ( + X6 46) Z)
( >= Y6 0)
( <= ( + Y6 22 ) 173)
( >= X7 0)
( <= ( + X7 22) Z)
( >= Y7 0)
( <= ( + Y7 1 ) 173)
( >= X8 0)
( <= ( + X8 59) Z)
( >= Y8 0)
( <= ( + Y8 76 ) 173)
( >= X9 0)
( <= ( + X9 33) Z)
( >= Y9 0)
( <= ( + Y9 55 ) 173)
( >= X10 0)
( <= ( + X10 77) Z)
( >= Y10 0)
( <= ( + Y10 43 ) 173)
( >= X11 0)
( <= ( + X11 38) Z)
( >= Y11 0)
( <= ( + Y11 5 ) 173)
) )
(minimize Z)
(check-sat)
